\ Model prob_29
\ LP format - for model browsing. Use MPS format to capture full model detail.
Minimize
  3 Pasta + 8 Avocado + 7 Chicken + 2 Tofu + 9 Spinach + 10 Cheese
Subject To
 R0: 15 Pasta + 20 Avocado + 15 Chicken + 19 Tofu + 19 Spinach + 12 Cheese
   >= 73
 R1: 30 Pasta + 16 Avocado + 8 Chicken + 5 Tofu + 28 Spinach + 17 Cheese
   >= 111
 R2: 154 Pasta + 111 Avocado + 211 Chicken + 87 Tofu + 98 Spinach
   + 231 Cheese >= 2196
Bounds
Generals
 Pasta Avocado Chicken Tofu Spinach Cheese
End
